
Gurobi 12.0.1 (win64, C++) logging started Thu Apr 17 16:49:55 2025

Set parameter Username
Set parameter LicenseID to value 2618655
Academic license - for non-commercial use only - expires 2026-02-05
Set parameter Threads to value 8
Set parameter LazyConstraints to value 1
Set parameter PreCrush to value 1
Set parameter Seed to value 0
Set parameter Cuts to value -1
Set parameter TimeLimit to value 28800
Set parameter NumericFocus to value 0
Set parameter SolutionLimit to value 10000
Gurobi Optimizer version 12.0.1 build v12.0.1rc0 (win64 - Windows Server 2022.0 (20348.2))

CPU model: AMD EPYC 7513 32-Core Processor, instruction set [SSE2|AVX|AVX2]
Thread count: 18 physical cores, 18 logical processors, using up to 8 threads

Non-default parameters:
SolutionLimit  10000
TimeLimit  28800
PreCrush  1
Threads  8
LazyConstraints  1

Optimize a model with 287 rows, 529 columns and 1538 nonzeros
Model fingerprint: 0xaf4585e9
Variable types: 0 continuous, 529 integer (529 binary)
Coefficient statistics:
  Matrix range     [1e+00, 1e+00]
  Objective range  [4e+00, 1e+02]
  Bounds range     [1e+00, 1e+00]
  RHS range        [1e+00, 6e+00]

User MIP start produced solution with objective 781.824 (0.00s)
Loaded user MIP start with objective 781.824

Presolve removed 17 rows and 43 columns
Presolve time: 0.00s
Presolved: 270 rows, 486 columns, 1429 nonzeros
Variable types: 0 continuous, 486 integer (486 binary)

Root relaxation: objective 5.644680e+02, 77 iterations, 0.00 seconds (0.00 work units)

    Nodes    |    Current Node    |     Objective Bounds      |     Work
 Expl Unexpl |  Obj  Depth IntInf | Incumbent    BestBd   Gap | It/Node Time

     0     0  564.46796    0    -  781.82389  564.46796  27.8%     -    0s
     0     0  567.33490    0    -  781.82389  567.33490  27.4%     -    0s
     0     0  591.68385    0    -  781.82389  591.68385  24.3%     -    0s
     0     0  592.36949    0    -  781.82389  592.36949  24.2%     -    0s
     0     0  596.11574    0   10  781.82389  596.11574  23.8%     -    0s
     0     0  601.53098    0    -  781.82389  601.53098  23.1%     -    0s
     0     0  608.12838    0    -  781.82389  608.12838  22.2%     -    0s
     0     0  622.24973    0    -  781.82389  622.24973  20.4%     -    0s
     0     0  622.58121    0    -  781.82389  622.58121  20.4%     -    0s
     0     0  622.70556    0   20  781.82389  622.70556  20.4%     -    0s
     0     0  622.76160    0    -  781.82389  622.76160  20.3%     -    0s
     0     0  631.78419    0    8  781.82389  631.78419  19.2%     -    0s
     0     0  631.78419    0   38  781.82389  631.78419  19.2%     -    0s
     0     0  631.78419    0    8  781.82389  631.78419  19.2%     -    0s
     0     2  640.91933    0   36  781.82389  640.91933  18.0%     -    0s
    63    99  664.73604    9   59  781.82389  660.11879  15.6%  27.0   11s
   451   445  709.14427   55   35  781.82389  660.11879  15.6%  17.6   16s
   660   690  725.79843   90   33  781.82389  660.11879  15.6%  15.6   23s
   787   759  720.42450    9   10  781.82389  660.11879  15.6%  15.6   30s
   982   956  721.89102   20   10  781.82389  660.11879  15.6%  16.0   37s
H 1141  1062                     778.0480080  660.11879  15.2%  15.4   38s
  1292  1171  727.36548   15   31  778.04801  660.11879  15.2%  15.1   40s
  1779  1526  721.61095   32    8  778.04801  668.39249  14.1%  14.4   46s
H 1780  1450                     777.8864545  679.80940  12.6%  14.4   46s
H 1781  1378                     749.1030935  682.89261  8.84%  14.4   46s
H 1782  1310                     735.1420561  685.13106  6.80%  14.4   47s
  2082  1460     cutoff   34       735.14206  688.40354  6.36%  16.7   50s
  4311  2193  711.45560   29   36  735.14206  691.37611  5.95%  16.5   55s
  6805  3160  717.91070   30   42  735.14206  695.33588  5.41%  16.4   60s
  8131  3789  730.57395   35   43  735.14206  695.97752  5.33%  16.7   65s
* 8965  3994              68     732.9302262  697.10506  4.89%  17.0   66s
H10681  4352                     730.6578586  699.09486  4.32%  17.2   66s
 13429  5116  714.26520   26   45  730.65786  701.91284  3.93%  17.9   70s
 16002  5676  727.43166   35   58  730.65786  704.24362  3.62%  18.4   75s
H24554  6651                     730.6578434  710.57154  2.75%  18.7   79s
H24900  6692                     730.6578290  710.73738  2.73%  18.7   79s
H24989  6692                     730.6578009  710.73738  2.73%  18.8   79s
 25712  6647  727.65651   31   53  730.65780  711.19994  2.66%  18.7   80s
 37405  4833     cutoff   32       730.65780  718.97283  1.60%  19.2   85s

Cutting planes:
  Gomory: 3
  Clique: 2
  GUB cover: 1
  Zero half: 7
  Lazy constraints: 916

Explored 46500 nodes (873318 simplex iterations) in 88.58 seconds (37.35 work units)
Thread count was 8 (of 18 available processors)

Solution count 8: 730.658 730.658 732.93 ... 781.824

Optimal solution found (tolerance 1.00e-04)
Best objective 7.306578008536e+02, best bound 7.306578008536e+02, gap 0.0000%

User-callback calls 94918, time in user-callback 66.27 sec
### START EXACT APPROACH ###
ProblemVariant: 4
### START PREPROCESSING ###
## Start infeasible path procedure ## 
Deleted arcs: 20
Infeasible tail paths: 10
Infeasible 2-node combinations: 10
## Start extended infeasible path procedure ##
Deleted arcs: 20
Infeasible tail paths: 10
Infeasible 2-node combinations: 10
## Start start solution procedure ##
Start solution with 5 Vehicles and total costs 781.824 in 1.1262 s.
### END PREPROCESSING ###
Route 0 0-11-13-9-5-4-7-0 : weight util 0.605556 | volume util 0.776267 | infeasible with packing heuristic | feasible with CP model
Route 1 0-14-17-22-20-19-0 : weight util 0.427778 | volume util 0.730244 | infeasible with packing heuristic | feasible with CP model
Route 2 0-16-15-3-2-1-6-12-0 : weight util 0.220889 | volume util 0.597911 | infeasible with packing heuristic | feasible with CP model
Route 3 0-18-0 : weight util 0.026667 | volume util 0.258400 | feasible with packing heuristic | feasible with CP model
Route 4 0-21-8-10-0 : weight util 0.983333 | volume util 0.467044 | feasible with packing heuristic | feasible with CP model
